% File represents an instance of a Composite Structure problem to be solved by a CP framework
% Created on 2025-03-26 10:41:34.607
T = 50;
n = 25;
m = 40;
edges = [(1, 2),
(6, 7),
(11, 12),
(16, 17),
(21, 22),
(2, 3),
(7, 8),
(12, 13),
(17, 18),
(22, 23),
(3, 4),
(8, 9),
(13, 14),
(18, 19),
(23, 24),
(5, 4),
(10, 9),
(15, 14),
(19, 20),
(24, 25),
(6, 1),
(11, 6),
(16, 11),
(16, 21),
(7, 2),
(12, 7),
(17, 12),
(17, 22),
(8, 3),
(13, 8),
(18, 13),
(18, 23),
(9, 4),
(14, 9),
(19, 14),
(19, 24),
(10, 5),
(15, 10),
(15, 20),
(20, 25)];
counts = [|8, 8, 8, 8,
|8, 6, 8, 4,
|6, 4, 6, 4,
|4, 4, 4, 2,
|4, 6, 4, 4,
|8, 12, 8, 10,
|8, 10, 8, 6,
|6, 8, 6, 6,
|6, 6, 6, 2,
|6, 6, 6, 4,
|10, 12, 10, 12,
|10, 10, 10, 8,
|8, 8, 8, 8,
|8, 8, 8, 2,
|8, 8, 8, 4,
|12, 14, 12, 12,
|12, 12, 12, 8,
|10, 10, 10, 8,
|8, 8, 8, 8,
|8, 8, 8, 2,
|10, 14, 10, 10,
|10, 12, 10, 6,
|10, 8, 10, 4,
|8, 8, 8, 2,
|8, 2, 8, 2|];
